Version identifier: 20.1.0.0 | 2020-11-10 | 9bedb6d68
Tried aggregator 2 times.
MIP Presolve eliminated 1218 rows and 631 columns.
MIP Presolve modified 3156 coefficients.
Aggregator did 141 substitutions.
Reduced MIP has 1850 rows, 1443 columns, and 6078 nonzeros.
Reduced MIP has 289 binaries, 1154 generals, 0 SOSs, and 0 indicators.
Presolve time = 0.02 sec. (7.19 ticks)
Probing fixed 40 vars, tightened 484 bounds.
Probing time = 0.00 sec. (1.25 ticks)
Tried aggregator 1 time.
Detecting symmetries...
MIP Presolve eliminated 780 rows and 40 columns.
MIP Presolve modified 121 coefficients.
Reduced MIP has 1070 rows, 1403 columns, and 3498 nonzeros.
Reduced MIP has 449 binaries, 954 generals, 0 SOSs, and 0 indicators.
Presolve time = 0.01 sec. (3.92 ticks)
Probing time = 0.00 sec. (0.28 ticks)
Clique table members: 5.
MIP emphasis: balance optimality and feasibility.
MIP search method: dynamic search.
Parallel mode: deterministic, using up to 24 threads.
Root relaxation solution time = 0.01 sec. (2.61 ticks)

        Nodes                                         Cuts/
   Node  Left     Objective  IInf  Best Integer    Best Bound    ItCnt     Gap

*     0+    0                           51.0000        0.0000           100.00%
      0     0        0.0000    62       51.0000        0.0000      285  100.00%
      0     0        0.0000   106       51.0000     Cuts: 180      483  100.00%
      0     0        0.3201   268       51.0000     Cuts: 134      762   99.37%
*     0+    0                           17.0000        0.3201            98.12%
      0     0        0.5024   276       17.0000      Cuts: 45      798   97.04%
      0     0        0.5109   332       17.0000      Cuts: 94      892   96.99%
      0     0        0.5822   292       17.0000      Cuts: 56      933   96.58%
*     0+    0                           13.0000        0.5822            95.52%
      0     0        cutoff             13.0000       13.0000      986    0.00%
Elapsed time = 0.52 sec. (101.63 ticks, tree = 0.01 MB, solutions = 3)

Implied bound cuts applied:  50
Flow cuts applied:  7
Mixed integer rounding cuts applied:  20
Zero-half cuts applied:  136
Lift and project cuts applied:  6
Gomory fractional cuts applied:  15

Root node processing (before b&c):
  Real time             =    0.52 sec. (101.75 ticks)
Parallel b&c, 24 threads:
  Real time             =    0.00 sec. (0.00 ticks)
  Sync time (average)   =    0.00 sec.
  Wait time (average)   =    0.00 sec.
                          ------------
Total (root+branch&cut) =    0.52 sec. (101.75 ticks)

Solution status = Optimal
Solution LB = 13
Solution UB = 13
Runtime = 0.52437 seconds
	Command being timed: "/home/min/git_repos/CS598MEBProject/CNT-ILP/build/cnt -s 2 ./output/k8_n20/simC_c1_k8_n20_u3_s3_del02.input-left.cnp"
	User time (seconds): 6.78
	System time (seconds): 0.08
	Percent of CPU this job got: 1213%
	Elapsed (wall clock) time (h:mm:ss or m:ss): 0:00.56
	Average shared text size (kbytes): 0
	Average unshared data size (kbytes): 0
	Average stack size (kbytes): 0
	Average total size (kbytes): 0
	Maximum resident set size (kbytes): 107172
	Average resident set size (kbytes): 0
	Major (requiring I/O) page faults: 0
	Minor (reclaiming a frame) page faults: 24528
	Voluntary context switches: 5059
	Involuntary context switches: 1270
	Swaps: 0
	File system inputs: 0
	File system outputs: 16
	Socket messages sent: 0
	Socket messages received: 0
	Signals delivered: 0
	Page size (bytes): 4096
	Exit status: 0
